sat
(:cnf-encoding-aux-vars 10
 :max-memory            18.24
 :memory                18.14
 :nlsat-conflicts       1
 :nlsat-decisions       6
 :nlsat-propagations    46
 :nlsat-stages          4
 :num-allocs            42566
 :rlimit-count          15866
 :time                  0.01
 :total-time            0.01)
